56
177
72
28
263
140
123
163
188
243
40
183
109
164
160
172
124
111
257
217
122
227
262
126
169
230
66
242
28
123
198
59
91
207
121
178
105
7
63
234
82
256
243
256
160
155
168
19
216
103
8
147
111
121
260
6
165
263
197
42
101
257
84
207
217
124
174
16
118
80
182
7
186
161
53
205
182
99
79
205
199
101
135
99
246
177
59
165
134
262
222
113
15
8
67
182
221
175
52
249
